35
22
0 23 25 26 29 30 32
1 23 24 25 29 30 32 33 34
2 23 26 29 30 31 32 34
3 23 27 30 32 34
4 22 23 24 25 27 30 32 34
5 22 23 26 28 32 34
6 22 23 26
7 22 23 27 29 30 31 32
8 22 23 24 26 30 31 33 34
9 23 25 26 29 30 31 32
10 22 25 32
11 23 26 30 32 33
12 22 25 27 32
13 27 29 30
14 22 25 26
15 23 24 32
16 22 27
17 31
18 24 30
19 25 28
20 23
21 22
